30
0   127   130
1   126   128
2   126   129
3   66   66
4   66   64
5   63   66
6   32   35
7   35   36
8   32   35
9   18   17
10   20   16
11   18   16
12   8   8
13   12   8
14   11   9
15   7   4
16   8   5
17   7   7
18   6   3
19   4   3
20   3   5
21   3   1
22   4   5
23   1   2
24   3   1
25   3   5
26   4   5
27   2   3
28   3   5
29   4   5
250
